
List of user-set options:

                                    Name   Value                used
                           compl_inf_tol = 1                     yes
                         constr_viol_tol = 1                     yes
                            dual_inf_tol = 1000                  yes
                           linear_solver = ma97                  yes
                              ma86_small = 1e-30                  no
                                  ma86_u = 0.0001                 no
                              ma97_order = best                  yes
                              ma97_small = 1e-30                 yes
                            ma97_switch1 = at_start              yes
                            ma97_switch2 = od_hd_reuse           yes
                                  ma97_u = 1e-06                 yes
                               ma97_umax = 0.5                   yes
                                max_iter = 1000                  yes
                    max_refinement_steps = 20                    yes
                    min_refinement_steps = 5                     yes
                                 mu_init = 1e-06                 yes
           mu_superlinear_decrease_power = 1.25                  yes
                   nlp_scaling_min_value = 1e-08                 yes
                        option_file_name = Preset_Case:_236_NCP.opt  yes
                             output_file = ./tmp/Preset_Case:_236_NCP.output  yes
                      print_user_options = yes                   yes
        required_infeasibility_reduction = 1                      no
                                     tol = 1e-08                 yes
                   warm_start_bound_frac = 1e-20                 yes
                   warm_start_bound_push = 1e-20                 yes
                   warm_start_init_point = yes                   yes
              warm_start_mult_bound_push = 1e-20                 yes
                warm_start_mult_init_max = 1e+40                 yes
             warm_start_slack_bound_frac = 1e-20                 yes
             warm_start_slack_bound_push = 1e-20                 yes

******************************************************************************
This program contains Ipopt, a library for large-scale nonlinear optimization.
 Ipopt is released as open source code under the Eclipse Public License (EPL).
         For more information visit http://projects.coin-or.org/Ipopt
******************************************************************************

This is Ipopt version 3.12.10, running with linear solver ma97.

Number of nonzeros in equality constraint Jacobian...:   117167
Number of nonzeros in inequality constraint Jacobian.:      213
Number of nonzeros in Lagrangian Hessian.............:    47513

Total number of variables............................:    29977
                     variables with only lower bounds:    11312
                variables with lower and upper bounds:    15135
                     variables with only upper bounds:        0
Total number of equality constraints.................:    29864
Total number of inequality constraints...............:       25
        inequality constraints with only lower bounds:        4
   inequality constraints with lower and upper bounds:        0
        inequality constraints with only upper bounds:       21

iter    objective    inf_pr   inf_du lg(mu)  ||d||  lg(rg) alpha_du alpha_pr  ls
   0 -2.1576452e-01 8.79e-02 2.00e+00  -6.0 0.00e+00    -  0.00e+00 0.00e+00   0
In iteration 0, 8 Slacks too small, adjusting variable bounds
   1 -2.1576452e-01 8.79e-02 4.55e+02  -6.0 1.11e+10    -  4.54e-14 1.20e-18h  1
   2 -2.1576263e-01 8.79e-02 4.56e+02  -6.0 7.39e+01    -  9.28e-03 4.75e-05f  1
   3 -2.1536568e-01 8.70e-02 4.51e+02  -6.0 6.14e+01    -  4.84e-03 1.02e-02h  1
   4 -2.1503687e-01 8.63e-02 4.52e+02  -6.0 7.25e+01    -  1.16e-01 7.50e-03h  1
   5 -2.1467214e-01 8.55e-02 4.49e+02  -6.0 6.02e+01    -  2.30e-02 9.51e-03h  5
   6 -2.1404256e-01 8.42e-02 4.43e+02  -6.0 6.78e+01    -  4.88e-02 1.56e-02h  5
   7 -2.1272446e-01 8.20e-02 4.31e+02  -6.0 1.26e+02    -  4.80e-04 2.62e-02h  5
   8 -2.1142984e-01 7.97e-02 4.19e+02  -6.0 1.17e+02    -  6.60e-02 2.74e-02h  5
   9 -2.1006660e-01 7.73e-02 4.07e+02  -6.0 1.12e+02    -  2.31e-02 3.04e-02h  5
iter    objective    inf_pr   inf_du lg(mu)  ||d||  lg(rg) alpha_du alpha_pr  ls
  10 -2.0872660e-01 7.49e-02 3.92e+02  -6.0 1.08e+02    -  1.38e-01 3.12e-02h  5
  11 -2.0746525e-01 7.25e-02 3.79e+02  -6.0 9.81e+01    -  6.03e-02 3.18e-02h  5
  12 -2.0630145e-01 7.03e-02 3.67e+02  -6.0 9.39e+01    -  4.22e-02 3.07e-02h  5
  13 -2.0532088e-01 6.84e-02 3.51e+02  -6.0 8.27e+01    -  1.72e-01 2.72e-02h  5
  14 -2.0425872e-01 6.62e-02 3.39e+02  -6.0 8.12e+01    -  6.28e-02 3.10e-02h  5
  15 -1.8952726e-01 1.31e+00 2.56e+02  -6.0 6.84e+01    -  1.69e-01 4.52e-01w  1
  16 -1.7877054e-01 1.15e+00 2.95e+02  -6.0 5.26e+01    -  2.90e-01 5.82e-01w  1
  17 -1.7382818e-01 6.91e-01 6.91e+02  -6.0 4.61e+01    -  3.90e-03 4.24e-01w  1
  18 -2.0333800e-01 6.44e-02 3.22e+02  -6.0 5.26e+01    -  1.69e-01 2.83e-02h  4
  19 -2.0234816e-01 6.23e-02 3.12e+02  -6.0 6.17e+01    -  4.11e-02 3.15e-02h  5
iter    objective    inf_pr   inf_du lg(mu)  ||d||  lg(rg) alpha_du alpha_pr  ls
  20 -2.0136284e-01 6.03e-02 2.93e+02  -6.0 6.06e+01    -  1.99e-01 3.24e-02h  5
  21 -2.0017090e-01 6.28e-02 2.77e+02  -6.0 5.99e+01    -  1.29e-01 4.02e-02h  5
  22 -1.9885164e-01 7.03e-02 2.48e+02  -6.0 6.09e+01    -  3.91e-01 4.60e-02h  5
  23 -1.9740341e-01 7.79e-02 2.25e+02  -6.0 6.80e+01    -  3.01e-01 5.10e-02h  5
  24 -1.9581795e-01 8.54e-02 1.95e+02  -6.0 7.45e+01    -  5.30e-01 5.69e-02h  5
  25 -1.9480857e-01 8.78e-02 1.83e+02  -6.0 4.71e+01  -4.0 1.24e-01 4.30e-02h  5
  26 -1.9360962e-01 9.13e-02 1.68e+02  -6.0 5.67e+01  -4.5 1.97e-01 4.49e-02h  3
  27 -1.9287199e-01 9.11e-02 1.55e+02  -6.0 4.44e+01  -4.1 2.43e-01 3.31e-02h  5
  28 -1.8224652e-01 7.56e-01 5.61e+02  -6.0 2.42e+01  -3.6 5.73e-01 4.78e-01w  1
  29 -1.7937324e-01 6.21e-01 4.55e+02  -6.0 3.13e+01  -4.1 4.71e-02 1.99e-01w  1
iter    objective    inf_pr   inf_du lg(mu)  ||d||  lg(rg) alpha_du alpha_pr  ls
  30 -1.7752214e-01 5.45e-01 7.08e+03  -6.0 1.61e+01  -3.7 5.62e-01 1.29e-01w  1
  31 -1.9220790e-01 9.12e-02 1.42e+02  -6.0 8.86e+01  -4.2 5.73e-01 2.99e-02h  4
  32 -1.9170419e-01 9.05e-02 1.39e+02  -6.0 2.61e+01  -3.7 6.03e-02 2.38e-02h  5
  33 -1.9090238e-01 9.08e-02 1.34e+02  -6.0 1.65e+01  -3.3 1.13e-01 3.19e-02h  5
  34 -1.9044655e-01 8.99e-02 1.31e+02  -6.0 2.67e+01  -3.8 1.47e-01 2.17e-02h  5
  35 -1.8917153e-01 9.41e-02 1.23e+02  -6.0 1.70e+01  -3.4 7.22e-01 5.84e-02h  4
  36 -1.8856091e-01 9.28e-02 1.20e+02  -6.0 2.58e+01  -3.8 8.17e-02 2.77e-02h  5
  37 -1.8727427e-01 9.53e-02 1.13e+02  -6.0 1.71e+01  -3.4 8.11e-01 5.91e-02h  4
  38 -1.8680649e-01 9.38e-02 1.10e+02  -6.0 2.54e+01  -3.9 1.97e-01 2.29e-02h  5
  39 -1.8517053e-01 9.89e-02 1.01e+02  -6.0 1.70e+01  -3.5 7.85e-01 8.06e-02h  4
iter    objective    inf_pr   inf_du lg(mu)  ||d||  lg(rg) alpha_du alpha_pr  ls
  40 -1.8512546e-01 9.86e-02 1.01e+02  -6.0 4.18e+01  -3.9 2.32e-01 2.62e-03h  7
  41 -1.7381524e-01 6.36e-01 3.40e+02  -6.0 1.71e+01  -3.5 3.24e-01 6.08e-01w  1
  42 -1.6801198e-01 3.91e-01 1.55e+03  -6.0 8.66e+00  -3.1 3.59e-01 5.92e-01w  1
  43 -1.6790468e-01 3.81e-01 1.30e+04  -6.0 6.45e+00  -3.6 6.68e-01 2.55e-02w  1
  44 -1.8371168e-01 1.00e-01 9.28e+01  -6.0 7.91e+00  -3.1 3.24e-01 7.60e-02h  3
  45 -1.8314274e-01 9.86e-02 8.95e+01  -6.0 1.81e+01  -3.6 6.74e-01 3.26e-02h  5
  46 -1.8197966e-01 9.98e-02 8.28e+01  -6.0 1.25e+01  -3.2 9.85e-01 7.40e-02h  4
  47 -1.8154592e-01 9.79e-02 1.45e+02  -6.0 1.81e+01  -3.7 7.98e-01 2.63e-02h  5
  48 -1.8024235e-01 9.87e-02 1.77e+02  -6.0 1.26e+01  -3.2 7.26e-01 8.51e-02h  4
  49 -1.7996678e-01 9.70e-02 3.71e+02  -6.0 1.76e+01  -3.7 4.39e-01 1.94e-02h  5
iter    objective    inf_pr   inf_du lg(mu)  ||d||  lg(rg) alpha_du alpha_pr  ls
  50 -1.7937430e-01 9.47e-02 4.61e+02  -6.0 1.26e+01  -3.3 5.01e-01 4.06e-02h  5
  51 -1.7928846e-01 9.41e-02 1.16e+03  -6.0 2.17e+01  -3.8 3.64e-01 6.66e-03h  6
  52 -1.7873798e-01 9.18e-02 1.52e+03  -6.0 1.27e+01  -3.3 5.87e-01 3.95e-02h  5
  53 -1.7871421e-01 9.16e-02 3.60e+03  -6.0 3.52e+01  -3.8 2.17e-01 2.30e-03h  7
  54 -1.6948853e-01 3.89e-01 3.80e+02  -6.0 1.30e+01  -3.4 2.27e-01 6.79e-01w  1
  55 -1.6810391e-01 3.12e-01 1.98e+03  -6.0 5.68e+00  -3.0 6.16e-01 2.12e-01w  1
  56 -1.6515424e-01 4.19e-01 5.20e+03  -6.0 8.26e+00  -3.4 2.19e-01 4.49e-01w  1
  57 -1.7813761e-01 8.91e-02 3.78e+03  -6.0 3.65e+00  -3.0 2.27e-01 4.24e-02h  4
  58 -1.7765019e-01 8.67e-02 6.40e+03  -6.0 1.36e+01  -3.5 1.00e+00 3.71e-02h  5
  59 -1.7696780e-01 8.43e-02 6.19e+03  -6.0 9.94e+00  -3.1 1.00e+00 5.77e-02h  3
iter    objective    inf_pr   inf_du lg(mu)  ||d||  lg(rg) alpha_du alpha_pr  ls
  60 -1.7651696e-01 8.20e-02 8.39e+03  -6.0 1.36e+01  -3.5 4.95e-01 3.62e-02h  5
  61 -1.7592883e-01 7.95e-02 8.83e+03  -6.0 9.95e+00  -3.1 1.00e+00 4.79e-02h  5
  62 -1.7553183e-01 7.73e-02 1.04e+04  -6.0 1.34e+01  -3.6 2.55e-01 3.51e-02h  5
  63 -1.7452837e-01 7.47e-02 1.11e+04  -6.0 9.82e+00  -3.2 1.00e+00 8.55e-02h  4
  64 -1.7423110e-01 7.26e-02 1.43e+04  -6.0 1.25e+01  -3.6 2.66e-01 3.09e-02h  5
  65 -1.7344364e-01 6.95e-02 1.55e+04  -6.0 9.41e+00  -3.2 1.00e+00 7.49e-02h  4
  66 -1.7335171e-01 6.87e-02 2.14e+04  -6.0 1.32e+01  -3.7 2.60e-01 1.14e-02h  6
  67 -1.6818155e-01 1.60e-01 1.02e+04  -6.0 9.14e+00  -3.3 1.00e+00 5.41e-01w  1
  68 -1.6810840e-01 3.08e-01 5.20e+02  -6.0 2.32e+01  -3.7 1.50e-02 1.06e-01w  1
  69 -1.6810570e-01 3.08e-01 1.04e+04  -6.0 4.68e+00  -3.3 6.25e-01 6.27e-04w  1
iter    objective    inf_pr   inf_du lg(mu)  ||d||  lg(rg) alpha_du alpha_pr  ls
  70 -1.7270544e-01 6.56e-02 2.05e+04  -6.0 8.76e+00  -3.8 1.00e+00 6.76e-02h  3
  71 -1.7217605e-01 6.26e-02 2.02e+04  -6.0 9.27e+00  -3.4 3.21e-01 5.98e-02h  4
  72 -1.7111270e-01 5.94e-02 1.45e+04  -6.0 7.05e+00  -2.9 1.00e+00 1.30e-01h  3
  73 -1.7043582e-01 5.53e-02 1.56e+04  -6.0 8.33e+00  -3.4 2.93e-01 9.04e-02h  3
  74 -1.6923519e-01 5.10e-02 1.29e+04  -6.0 6.27e+00  -3.0 1.00e+00 1.64e-01h  2
  75 -1.6890432e-01 4.84e-02 1.81e+04  -6.0 7.07e+00  -3.5 3.76e-01 5.69e-02h  3
  76 -1.6764082e-01 4.35e-02 1.22e+04  -6.0 5.77e+00  -3.0 1.00e+00 2.01e-01h  1
  77 -1.6745510e-01 4.19e-02 1.94e+04  -6.0 7.13e+00  -3.5 3.97e-01 3.83e-02h  4
  78 -1.6674296e-01 3.83e-02 1.00e+04  -6.0 5.74e+00  -3.1 1.00e+00 1.22e-01h  3
  79 -1.6665875e-01 3.80e-02 1.85e+04  -6.0 8.66e+00  -3.6 5.06e-01 2.50e-02h  4
iter    objective    inf_pr   inf_du lg(mu)  ||d||  lg(rg) alpha_du alpha_pr  ls
  80 -1.6602538e-01 3.77e-02 5.93e+03  -6.0 5.03e+00  -3.1 1.00e+00 1.30e-01h  3
  81 -1.6596107e-01 3.76e-02 1.09e+04  -6.0 1.05e+01  -3.6 5.83e-01 3.02e-02h  3
  82 -1.6547257e-01 3.28e-02 4.70e+03  -6.0 4.00e+00  -3.2 1.00e+00 1.31e-01h  1
  83 -1.6534655e-01 3.18e-02 2.04e+03  -6.0 6.39e+00  -3.7 5.52e-01 6.71e-02h  2
  84 -1.6521662e-01 3.21e-02 1.13e+04  -6.0 1.31e+01  -3.3 6.92e-01 2.39e-02h  1
  85 -1.6351929e-01 9.58e-02 4.68e+03  -6.0 4.86e+00  -3.7 7.91e-01 7.00e-01H  1
  86 -1.6561404e-01 8.64e-02 4.49e+04  -6.0 3.15e+00  -4.2 4.22e-01 8.67e-01H  1
  87 -1.6714071e-01 1.14e-01 2.24e+06  -6.0 4.63e+00  -4.7 1.22e-03 2.99e-01H  1
  88 -1.6768411e-01 1.19e-01 2.07e+06  -6.0 1.38e+01  -5.2 5.28e-01 7.28e-02h  4
  89 -1.6804039e-01 1.21e-01 2.03e+06  -6.0 2.78e+01  -5.6 4.64e-01 2.01e-02h  5
iter    objective    inf_pr   inf_du lg(mu)  ||d||  lg(rg) alpha_du alpha_pr  ls
  90 -1.6824062e-01 1.22e-01 2.02e+06  -6.0 1.83e+02  -6.1 4.09e-02 3.76e-03h  4
  91 -1.7275693e-01 8.10e-01 1.54e+06  -6.0 2.30e+01  -5.7 1.24e-01 2.40e-01h  1
  92 -1.7320817e-01 8.00e-01 1.50e+06  -6.0 4.59e+01  -6.2 1.00e+00 2.45e-02h  1
  93 -1.7399120e-01 8.08e-01 1.44e+06  -6.0 1.76e+02  -6.6 7.60e-02 4.21e-02h  1
  94 -1.7485226e-01 8.58e-01 1.41e+06  -6.0 6.64e+02  -7.1 1.79e-03 1.88e-02h  1
  95 -1.7484793e-01 8.58e-01 1.41e+06  -6.0 1.96e+03  -5.8 8.33e-03 7.99e-05h  1
  96 -1.7519314e-01 8.12e-01 1.32e+06  -6.0 5.78e+01  -6.3 4.68e-01 6.25e-02f  1
  97 -1.7907362e-01 8.83e-01 8.72e+05  -6.0 1.32e+02  -6.7 9.83e-01 3.39e-01h  1
  98 -1.7991703e-01 9.03e-01 8.32e+05  -6.0 2.92e+02  -7.2 6.74e-01 4.57e-02h  1
  99 -1.8483919e-01 1.75e+00 2.38e+05  -6.0 8.79e+01  -6.8 1.00e+00 7.08e-01h  1
iter    objective    inf_pr   inf_du lg(mu)  ||d||  lg(rg) alpha_du alpha_pr  ls
 100 -1.8747732e-01 1.27e+00 1.73e+05  -6.0 2.14e+02  -7.3 3.20e-01 2.70e-01h  1
 101 -1.8844735e-01 8.51e-01 1.16e+05  -6.0 6.97e+01  -6.8 1.00e+00 3.29e-01h  1
 102 -1.9505160e-01 2.78e+00 1.39e+04  -6.0 2.08e+02  -7.3 6.56e-01 8.82e-01h  1
 103 -1.9621837e-01 8.82e-01 3.29e+03  -6.0 6.62e+01  -6.9 3.22e-01 7.65e-01h  1
 104 -1.9891430e-01 1.51e+00 1.71e+03  -6.0 1.88e+02  -7.4 1.00e+00 4.81e-01h  1
 105 -2.0051778e-01 1.49e+00 1.45e+03  -6.0 3.09e+02  -7.9 2.26e-01 1.48e-01h  1
 106 -2.0178178e-01 8.38e-01 1.08e+03  -6.0 2.28e+02  -7.4 1.00e+00 2.59e-01h  1
 107 -2.0408404e-01 1.35e+00 7.54e+02  -6.0 3.77e+02  -7.9 8.85e-01 3.00e-01h  1
 108 -2.0527428e-01 1.13e+00 4.46e+02  -6.0 1.21e+02  -7.5 1.00e+00 4.07e-01h  1
 109 -2.0747147e-01 3.00e+00 2.99e+02  -6.0 5.34e+02  -8.0 3.06e-01 3.31e-01h  1
iter    objective    inf_pr   inf_du lg(mu)  ||d||  lg(rg) alpha_du alpha_pr  ls
 110 -2.0871049e-01 3.04e+00 1.58e+02  -6.0 1.84e+02  -7.5 1.00e+00 4.71e-01h  1
 111 -2.0980558e-01 1.43e+00 2.27e+00  -6.0 6.63e+01  -7.1 5.39e-01 1.00e+00h  1
 112 -2.1275758e-01 2.79e+01 6.09e+01  -6.0 3.06e+02  -7.6 5.90e-01 8.29e-01h  1
 113 -2.1386121e-01 2.30e+01 5.09e+01  -6.0 4.09e+02  -8.1 2.12e-02 1.76e-01h  1
 114 -2.1394473e-01 2.02e+01 4.47e+01  -6.0 3.19e+01  -6.7 1.18e-01 1.22e-01h  1
 115 -2.1443430e-01 1.29e+01 2.86e+01  -6.0 6.40e+01  -7.2 2.51e-01 7.97e-01f  1
 116 -2.1623496e-01 1.48e+01 3.48e+01  -6.0 2.73e+02  -7.7 1.00e+00 4.69e-01h  1
 117 -2.2194272e-01 4.85e+00 3.32e+01  -6.0 4.94e+02  -8.2 4.48e-01 8.67e-01h  1
 118 -2.2452991e-01 1.07e+01 2.82e+01  -6.0 1.28e+03  -8.6 7.59e-01 2.70e-01h  1
 119 -2.3078690e-01 1.19e+01 3.14e+01  -6.0 1.97e+03  -9.1 1.23e-01 5.00e-01h  1
iter    objective    inf_pr   inf_du lg(mu)  ||d||  lg(rg) alpha_du alpha_pr  ls
 120 -2.3095031e-01 1.15e+01 3.03e+01  -6.0 5.93e+03  -9.6 1.01e-01 3.41e-02h  1
 121 -2.3420796e-01 9.22e+00 7.69e+01  -6.0 4.31e+03  -9.2 2.69e-01 2.79e-01h  1
 122 -2.3536395e-01 1.03e+01 7.58e+01  -6.0 5.20e+03  -9.6 1.12e-02 5.25e-02h  1
 123 -2.3641957e-01 9.80e+00 7.26e+01  -6.0 2.15e+03  -9.2 2.99e-02 6.58e-02h  1
 124 -2.3737804e-01 9.24e+00 9.99e+01  -6.0 2.00e+03  -8.8 6.63e-03 5.99e-02h  1
Error in an AMPL evaluation. Run with "halt_on_ampl_error yes" to see details.
Warning: Cutting back alpha due to evaluation error
 125 -2.3759617e-01 8.88e+00 8.19e+01  -6.0 2.28e+02  -8.4 1.24e-01 3.91e-02h  2
 126 -2.3858369e-01 7.51e+00 1.12e+02  -6.0 1.47e+02  -7.9 7.70e-02 1.54e-01h  1
 127 -2.3858645e-01 7.50e+00 1.12e+02  -6.0 2.32e+01  -3.9 4.30e-04 1.30e-03h  1
 128 -2.3859839e-01 7.32e+00 1.08e+02  -6.0 2.02e+01  -4.4 2.42e-03 2.41e-02h  1
 129 -2.3876717e-01 5.95e+00 1.31e+02  -6.0 2.05e+01  -4.9 1.94e-02 1.91e-01h  1
iter    objective    inf_pr   inf_du lg(mu)  ||d||  lg(rg) alpha_du alpha_pr  ls
 130 -2.3847843e-01 3.53e+00 8.32e+01  -6.0 1.09e+01  -4.4 5.11e-02 4.14e-01h  1
 131 -2.3843151e-01 2.67e+00 6.87e+01  -6.0 5.21e+00  -4.9 1.06e-01 2.90e-01h  1
 132 -2.3819809e-01 7.46e-01 2.66e+01  -6.0 4.40e+00  -4.5 5.24e-01 7.69e-01h  1
 133 -2.3832716e-01 2.68e-01 4.22e+00  -6.0 1.33e+00  -5.0 9.47e-01 6.81e-01h  1
 134 -2.3890660e-01 4.22e-01 4.34e+01  -6.0 3.53e+00  -5.4 1.00e+00 9.05e-01h  1
 135 -2.3918665e-01 3.75e-01 5.54e+01  -6.0 5.57e+00  -5.9 5.61e-01 2.84e-01h  1
 136 -2.3944419e-01 8.24e-01 1.29e+02  -6.0 1.57e+01  -6.4 1.00e+00 3.01e-01h  1
 137 -2.3968000e-01 6.51e-01 9.62e+01  -6.0 4.87e+01  -6.9 5.02e-01 2.25e-01h  1
 138 -2.4000106e-01 5.61e-01 8.22e+01  -6.0 1.54e+02  -7.3 1.78e-01 1.46e-01h  1
 139 -2.4012878e-01 5.15e-01 3.50e+01  -6.0 1.29e+02  -7.8 7.06e-01 8.27e-02h  1
iter    objective    inf_pr   inf_du lg(mu)  ||d||  lg(rg) alpha_du alpha_pr  ls
 140 -2.4117889e-01 2.72e+00 1.54e+01  -6.0 2.01e+02  -8.3 6.54e-01 4.99e-01h  1
 141 -2.4135124e-01 1.94e+00 7.56e+00  -6.0 8.11e+01  -7.9 8.37e-01 3.14e-01h  1
 142 -2.4219702e-01 1.01e+00 1.00e+01  -6.0 2.14e+02  -8.3 1.00e+00 4.97e-01h  1
 143 -2.4311360e-01 8.57e-01 7.81e+01  -6.0 7.53e+02  -8.8 7.34e-01 2.11e-01h  1
 144 -2.4358247e-01 8.27e-01 7.54e+01  -6.0 4.51e+03  -9.3 3.63e-02 4.70e-02h  1
Error in an AMPL evaluation. Run with "halt_on_ampl_error yes" to see details.
Warning: Cutting back alpha due to evaluation error
 145 -2.4401371e-01 7.30e-01 6.71e+01  -6.0 4.68e+02  -8.9 1.12e-01 1.20e-01h  2
 146 -2.4406895e-01 5.99e-01 3.50e+01  -6.0 5.25e+01  -7.5 5.30e-01 1.79e-01h  1
 147 -2.4470717e-01 7.65e-02 5.72e+01  -6.0 7.98e+01  -8.0 4.71e-01 1.00e+00h  1
 148 -2.4624848e-01 1.38e+00 7.07e+00  -6.0 2.15e+02  -8.5 6.38e-01 1.00e+00h  1
 149 -2.4978493e-01 7.92e+00 2.91e+01  -6.0 5.92e+02  -9.0 1.00e+00 1.00e+00h  1
iter    objective    inf_pr   inf_du lg(mu)  ||d||  lg(rg) alpha_du alpha_pr  ls
 150 -2.4989650e-01 7.83e+00 2.87e+01  -6.0 2.04e+03  -9.5 8.95e-02 1.44e-02h  1
 151 -2.5077816e-01 9.78e+00 3.56e+01  -6.0 8.26e+03  -9.9 5.04e-02 3.73e-02h  1
 152 -2.5111622e-01 9.21e+00 3.36e+01  -6.0 2.89e+03 -10.4 2.54e-01 5.82e-02h  1
 153 -2.5170003e-01 5.98e+00 2.18e+01  -6.0 4.29e+02  -9.1 2.99e-01 3.51e-01h  1
 154 -2.5243570e-01 4.34e+00 1.58e+01  -6.0 1.37e+03  -9.6 3.36e-01 2.75e-01h  1
Error in an AMPL evaluation. Run with "halt_on_ampl_error yes" to see details.
Warning: Cutting back alpha due to evaluation error
 155 -2.5243907e-01 4.31e+00 1.57e+01  -6.0 3.89e+02  -9.1 1.45e-03 5.43e-03h  2
 156 -2.5243312e-01 3.17e+00 3.28e+01  -6.0 9.48e+00  -6.0 7.11e-01 2.65e-01h  1
 157 -2.5235820e-01 2.02e-03 1.53e+01  -6.0 3.35e+00  -6.5 4.56e-01 1.00e+00h  1
 158 -2.5237792e-01 1.29e-03 5.07e+00  -6.0 4.28e+00  -7.0 8.40e-01 1.00e+00h  1
 159 -2.5239867e-01 4.67e-03 2.79e+00  -6.0 9.60e+00  -7.4 7.38e-01 9.02e-01h  1
iter    objective    inf_pr   inf_du lg(mu)  ||d||  lg(rg) alpha_du alpha_pr  ls
 160 -2.5249363e-01 1.24e-02 9.03e-02  -6.0 3.11e+01  -7.9 1.00e+00 1.00e+00f  1
 161 -2.5277012e-01 8.11e-02 5.71e-01  -6.0 8.94e+01  -8.4 1.00e+00 1.00e+00h  1
 162 -2.5341413e-01 4.97e-01 3.36e+00  -6.0 2.38e+02  -8.9 1.00e+00 1.00e+00h  1
 163 -2.5368442e-01 1.07e+00 7.03e+00  -6.0 1.18e+03  -9.3 1.63e-01 1.29e-01h  1
 164 -2.5385776e-01 9.45e-01 8.11e+01  -6.0 1.13e+03  -9.8 1.00e+00 1.18e-01h  1
 165 -2.5400358e-01 1.02e+00 7.63e+01  -6.0 1.69e+04 -10.3 2.70e-02 4.54e-02h  1
 166 -2.5433082e-01 1.90e+00 4.39e+01  -6.0 1.52e+03  -9.9 4.43e-02 2.67e-01h  1
 167 -2.5433001e-01 1.86e+00 4.72e+01  -6.0 5.74e-01  -0.0 1.50e-02 1.88e-02h  1
 168 -2.5432848e-01 1.85e+00 5.38e+01  -6.0 2.49e+00  -0.5 2.73e-04 9.39e-03h  1
 169 -2.5432838e-01 1.85e+00 5.28e+01  -6.0 3.32e+00  -0.1 1.85e-03 5.09e-04h  1
iter    objective    inf_pr   inf_du lg(mu)  ||d||  lg(rg) alpha_du alpha_pr  ls
 170 -2.5432828e-01 1.81e+00 6.15e+01  -6.0 5.99e-01   0.4 6.74e-03 2.14e-02h  1
 171 -2.5432745e-01 1.78e+00 5.50e+01  -6.0 5.46e-01  -0.1 2.50e-02 1.46e-02h  1
 172 -2.5432264e-01 1.68e+00 5.51e+01  -6.0 5.38e-01  -0.6 4.66e-02 5.44e-02h  1
 173 -2.5432030e-01 1.65e+00 4.99e+01  -6.0 5.08e-01  -1.1 1.63e-01 2.04e-02h  1
 174 -2.5431399e-01 1.56e+00 4.73e+01  -6.0 5.49e-01  -1.6 4.08e-02 5.22e-02h  1
 175 -2.5431079e-01 1.53e+00 4.03e+01  -6.0 2.63e+00  -2.0 9.17e-02 2.00e-02h  1
 176 -2.5429825e-01 1.43e+00 3.75e+01  -6.0 4.63e-01  -1.6 3.11e-01 6.80e-02h  1
 177 -2.5429223e-01 1.38e+00 3.63e+01  -6.0 2.76e+00  -2.1 7.37e-01 3.36e-02h  1
 178 -2.5424992e-01 1.08e+00 3.79e+01  -6.0 4.17e-01  -1.7 2.87e-01 2.19e-01h  1
 179 -2.5416833e-01 5.52e-01 2.56e+01  -6.0 6.18e-01  -2.1 9.28e-01 4.88e-01h  1
iter    objective    inf_pr   inf_du lg(mu)  ||d||  lg(rg) alpha_du alpha_pr  ls
 180 -2.5415665e-01 4.75e-01 3.90e+01  -6.0 3.71e-01  -2.6 1.00e+00 1.40e-01h  1
 181 -2.5409400e-01 1.71e-05 2.88e+01  -6.0 2.99e-01  -3.1 1.00e+00 1.00e+00h  1
 182 -2.5413670e-01 1.24e-05 6.76e-02  -6.0 2.92e-01  -3.6 1.00e+00 1.00e+00h  1
 183 -2.5427638e-01 1.18e-04 1.47e-02  -6.0 8.45e-01  -4.0 1.00e+00 1.00e+00h  1
 184 -2.5431578e-01 1.13e-04 3.09e+00  -6.0 2.03e+00  -4.5 1.00e+00 1.15e-01h  1
 185 -2.5432182e-01 1.31e-05 3.60e-01  -6.0 1.86e-01  -5.0 1.00e+00 9.13e-01h  1
 186 -2.5431068e-01 6.74e-06 4.62e-02  -6.0 3.93e-01  -5.5 1.00e+00 1.00e+00f  1
 187 -2.5431742e-01 6.87e-06 1.59e-02  -6.0 4.88e-01  -5.9 1.00e+00 1.00e+00h  1
 188 -2.5431908e-01 3.39e-05 6.77e-04  -6.0 1.43e+00  -6.4 1.00e+00 1.00e+00h  1
 189 -2.5432581e-01 2.82e-04 1.38e-03  -6.0 4.41e+00  -6.9 1.00e+00 1.00e+00h  1
iter    objective    inf_pr   inf_du lg(mu)  ||d||  lg(rg) alpha_du alpha_pr  ls
 190 -2.5435063e-01 2.46e-03 1.19e-02  -6.0 1.47e+01  -7.4 1.00e+00 1.00e+00h  1
 191 -2.5440019e-01 8.04e-03 5.74e-01  -6.0 8.84e+01  -7.9 6.01e-01 5.28e-01h  1
 192 -2.5457800e-01 2.95e-01 1.59e+00  -6.0 1.02e+02  -8.3 1.00e+00 1.00e+00f  1
 193 -2.5489913e-01 1.27e+00 6.54e+00  -6.0 6.39e+02  -8.8 3.25e-01 3.04e-01h  1
 194 -2.5504122e-01 6.74e-01 3.14e+02  -6.0 4.44e+02  -9.3 8.07e-01 4.84e-01h  1
 195 -2.5550296e-01 1.61e+00 9.38e+01  -6.0 9.91e+02  -9.8 3.33e-01 4.10e-01h  1
 196 -2.5575306e-01 1.84e+00 5.58e+02  -6.0 1.82e+03 -10.2 4.30e-01 1.88e-01h  1
 197 -2.5582892e-01 1.07e+00 5.52e+04  -6.0 9.70e+01  -6.2 1.50e-02 4.21e-01h  1
 198 -2.5582085e-01 6.97e-01 3.62e+04  -6.0 1.07e+01  -6.7 8.71e-01 3.47e-01h  1
 199 -2.5582216e-01 3.47e-03 2.48e+02  -6.0 1.10e+01  -7.2 4.25e-01 1.00e+00h  1
iter    objective    inf_pr   inf_du lg(mu)  ||d||  lg(rg) alpha_du alpha_pr  ls
 200 -2.5584468e-01 3.27e-03 1.79e+02  -6.0 2.45e+01  -7.6 1.00e+00 3.17e-01h  1
 201 -2.5602648e-01 2.16e-01 1.21e+00  -6.0 8.58e+01  -8.1 1.00e+00 1.00e+00f  1
 202 -2.5641851e-01 1.24e+00 4.27e+00  -6.0 2.08e+02  -8.6 8.92e-01 8.92e-01h  1
 203 -2.5643919e-01 3.09e-01 1.59e+01  -6.0 2.08e+02  -9.1 1.00e+00 1.00e+00h  1
 204 -2.5683385e-01 1.34e+00 1.51e+03  -6.0 5.01e+02  -9.5 2.90e-01 4.62e-01h  1
 205 -2.5697622e-01 3.78e+00 3.29e+04  -6.0 9.99e+02 -10.0 2.43e-01 8.43e-01h  1
 206 -2.5697590e-01 3.28e+00 2.84e+04  -6.0 1.19e+03 -10.5 1.52e-01 1.37e-01H  1
 207 -2.5697637e-01 3.23e+00 2.80e+04  -6.0 3.01e+03 -11.0 9.97e-02 1.29e-02h  1
 208 -2.5696706e-01 4.83e+01 2.10e+04  -6.0 7.42e+03 -11.5 1.95e-01 2.52e-01f  1
 209 -2.5696077e-01 4.12e+01 1.79e+04  -6.0 2.18e+03 -11.0 1.37e-01 1.47e-01h  1
iter    objective    inf_pr   inf_du lg(mu)  ||d||  lg(rg) alpha_du alpha_pr  ls
 210 -2.5684115e-01 7.60e+01 1.15e+04  -6.0 5.76e+03 -11.5 1.02e-01 3.56e-01h  1
 211 -2.5683310e-01 6.83e+01 9.71e+03  -6.0 4.35e+03 -11.1 3.11e-02 1.55e-01h  1
 212 -2.5679615e-01 5.90e+01 7.33e+03  -6.0 2.42e+04    -  3.23e-01 2.46e-01H  1
 213 -2.5681449e-01 2.99e+00 9.39e+01  -6.0 4.58e+02  -9.7 4.73e-01 1.00e+00h  1
 214 -2.5681122e-01 2.51e+00 1.29e+01  -6.0 3.42e+02 -10.2 4.73e-01 9.66e-01h  1
 215 -2.5679805e-01 9.56e-03 6.76e-01  -6.0 2.77e+01  -8.9 1.00e+00 1.00e+00h  1
 216 -2.5676824e-01 1.53e-02 1.82e+00  -6.0 6.32e+01  -7.6 2.00e-01 1.81e-01h  1
 217 -2.5682265e-01 2.20e-03 1.34e+00  -6.0 2.71e+00  -8.0 1.00e+00 1.00e+00h  1
 218 -2.5679466e-01 1.55e-03 4.35e-01  -6.0 8.11e+00  -8.5 1.00e+00 1.00e+00h  1
 219 -2.5679543e-01 1.19e-02 2.10e-03  -6.0 2.40e+01  -9.0 1.00e+00 1.00e+00h  1
iter    objective    inf_pr   inf_du lg(mu)  ||d||  lg(rg) alpha_du alpha_pr  ls
 220 -2.5679761e-01 7.80e-02 2.78e-03  -6.0 6.93e+01  -9.5 1.00e+00 1.00e+00h  1
 221 -2.5679815e-01 8.69e-01 1.54e-02  -6.0 1.69e+02 -10.0 1.00e+00 1.00e+00h  1
 222 -2.5679860e-01 3.71e-01 3.32e-03  -6.0 7.64e+01  -9.5 1.00e+00 1.00e+00h  1
 223 -2.5680140e-01 5.32e-01 6.33e-02  -6.0 2.67e+02 -10.0 1.00e+00 1.00e+00H  1
 224 -2.5680336e-01 3.62e-01 9.16e-01  -6.0 5.28e+02 -10.5 1.00e+00 8.87e-01H  1
 225 -2.5680014e-01 7.14e-01 3.12e-02  -6.0 2.49e+02 -10.1 1.00e+00 1.00e+00h  1
 226 -2.5679576e-01 2.01e+00 1.55e-01  -6.0 4.04e+02 -10.5 1.00e+00 1.00e+00h  1
 227 -2.5679577e-01 1.63e+00 1.21e+01  -6.0 7.83e+02 -10.1 1.00e+00 1.94e-01h  1
 228 -2.5679176e-01 1.47e+00 4.77e+00  -6.0 4.44e+02 -10.6 1.00e+00 5.68e-01h  1
 229 -2.5679016e-01 3.70e-01 1.52e-02  -6.0 1.66e+02    -  1.00e+00 1.00e+00h  1
iter    objective    inf_pr   inf_du lg(mu)  ||d||  lg(rg) alpha_du alpha_pr  ls
 230 -2.5678904e-01 4.17e-01 2.80e+00  -6.0 1.78e+02 -10.2 1.00e+00 3.67e-01h  2
 231 -2.5678771e-01 4.13e-01 7.44e+00  -6.0 5.76e+02 -10.6 1.00e+00 2.48e-01h  2
 232 -2.5678730e-01 1.06e+00 6.64e+01  -6.0 3.87e+03    -  8.64e-01 6.18e-02h  2
 233 -2.5678219e-01 8.29e-01 5.65e+00  -6.0 3.64e+02    -  1.00e+00 4.20e-01h  2
 234 -2.5678550e-01 6.82e-02 2.65e+00  -6.0 2.90e+01  -9.3 5.85e-01 1.00e+00h  1
 235 -2.5678408e-01 2.42e-01 8.29e-03  -6.0 9.72e+01  -9.8 1.00e+00 1.00e+00h  1
 236 -2.5677621e-01 1.25e+00 1.91e-01  -6.0 4.02e+02 -10.3 1.00e+00 1.00e+00H  1
 237 -2.5677309e-01 1.45e+00 6.60e+01  -6.0 1.35e+04    -  2.21e-01 9.99e-03h  2
 238 -2.5676997e-01 1.46e-05 3.95e+01  -6.0 3.31e-01  -7.1 4.07e-01 1.00e+00h  1
 239 -2.5677760e-01 8.85e-02 7.31e+00  -6.0 2.46e+02    -  1.00e+00 3.55e-01h  2
iter    objective    inf_pr   inf_du lg(mu)  ||d||  lg(rg) alpha_du alpha_pr  ls
 240 -2.5677134e-01 4.25e-02 2.11e-02  -6.0 6.07e+01    -  1.00e+00 1.00e+00h  1
 241 -2.5676986e-01 3.93e-04 1.12e-03  -6.0 5.83e+00    -  1.00e+00 1.00e+00h  1
 242 -2.5676985e-01 1.17e-07 7.80e-08  -6.0 1.00e-01    -  1.00e+00 1.00e+00h  1
 243 -2.5734234e-01 6.72e-01 1.90e+01  -7.5 3.70e+03    -  2.97e-01 2.30e-01f  1
 244 -2.5760777e-01 9.03e-01 4.71e+01  -7.5 2.51e+03    -  3.33e-01 1.76e-01h  1
 245 -2.5770100e-01 9.01e-01 7.52e+01  -7.5 2.48e+03    -  3.28e-01 8.75e-02h  1
 246 -2.5791993e-01 1.42e+01 5.14e+01  -7.5 3.23e+03    -  2.56e-01 2.84e-01h  1
 247 -2.5797886e-01 1.27e+01 4.35e+01  -7.5 1.73e+03    -  6.87e-02 1.05e-01h  1
 248 -2.5800259e-01 1.08e+01 7.72e+01  -7.5 2.91e+01  -7.6 5.83e-01 1.53e-01h  1
 249 -2.5807801e-01 5.97e+00 3.00e+01  -7.5 5.65e+01  -8.1 2.56e-01 4.47e-01h  1
iter    objective    inf_pr   inf_du lg(mu)  ||d||  lg(rg) alpha_du alpha_pr  ls
 250 -2.5815452e-01 9.70e+01 2.53e+01  -7.5 3.02e+04    -  4.55e-03 9.64e-02h  1
 251 -2.5816249e-01 9.65e+01 2.60e+01  -7.5 1.31e+04    -  4.71e-02 4.92e-03h  1
 252 -2.5821318e-01 7.58e+01 6.74e+01  -7.5 2.61e+03    -  4.61e-02 3.04e-01h  1
 253 -2.5822166e-01 6.98e+01 6.13e+01  -7.5 1.59e+04    -  2.85e-02 7.88e-02h  1
 254 -2.5824665e-01 3.79e+01 7.57e+01  -7.5 1.03e+03    -  1.46e-01 4.90e-01h  1
 255 -2.5824820e-01 2.91e+01 4.15e+01  -7.5 1.44e+03    -  3.89e-01 2.87e-01h  1
 256 -2.5824889e-01 1.31e-02 2.05e+00  -7.5 4.57e+00  -8.6 9.72e-01 1.00e+00h  1
 257 -2.5824924e-01 1.14e-03 7.48e-04  -7.5 8.47e+00  -9.0 1.00e+00 1.00e+00h  1
 258 -2.5824958e-01 7.76e-03 6.63e-05  -7.5 1.73e+01  -9.5 1.00e+00 1.00e+00h  1
 259 -2.5825010e-01 6.31e-02 1.40e-04  -7.5 3.02e+01 -10.0 1.00e+00 1.00e+00h  1
iter    objective    inf_pr   inf_du lg(mu)  ||d||  lg(rg) alpha_du alpha_pr  ls
 260 -2.5825098e-01 1.32e-01 4.61e-04  -7.5 7.46e+01 -10.5 1.00e+00 1.00e+00h  1
 261 -2.5825256e-01 7.28e-01 1.89e-03  -7.5 1.49e+02 -10.9 1.00e+00 1.00e+00h  1
 262 -2.5825510e-01 2.20e+00 7.69e-03  -7.5 4.27e+02 -11.4 1.00e+00 1.00e+00h  1
 263 -2.5826165e-01 2.15e+01 2.84e-01  -7.5 1.32e+03 -11.9 5.35e-01 1.00e+00h  1
 264 -2.5826274e-01 1.19e+01 3.13e-01  -7.5 6.29e+02 -11.5 1.99e-01 4.87e-01h  1
 265 -2.5826304e-01 1.15e+01 3.56e-01  -7.5 6.73e+03 -11.0 1.06e-04 3.47e-02H  1
 266 -2.5826487e-01 2.87e+01 4.03e-01  -7.5 3.75e+04 -11.5 2.05e-02 3.79e-02h  2
 267 -2.5826513e-01 2.77e+01 1.02e+00  -7.5 1.70e+03 -12.0 1.00e+00 3.48e-02h  1
 268 -2.5827529e-01 7.39e+01 6.85e-01  -7.5 3.63e+03 -12.5 6.55e-01 5.28e-01H  1
 269 -2.5827715e-01 7.35e+01 6.84e-01  -7.5 1.35e+05    -  9.33e-04 5.59e-03h  2
iter    objective    inf_pr   inf_du lg(mu)  ||d||  lg(rg) alpha_du alpha_pr  ls
 270 -2.5827596e-01 6.81e+01 1.24e+00  -7.5 3.83e+03    -  3.48e-02 2.64e-01h  1
 271 -2.5827617e-01 6.80e+01 2.39e+00  -7.5 2.91e+04    -  6.23e-02 5.02e-03h  4
 272 -2.5828089e-01 6.79e+01 3.95e+00  -7.5 2.14e+03    -  1.14e-01 1.00e+00h  1
 273 -2.5828145e-01 6.14e+01 3.35e+00  -7.5 1.44e+03    -  2.38e-01 9.78e-02h  1
 274 -2.5828327e-01 5.14e+01 2.75e+00  -7.5 2.30e+03    -  9.06e-03 2.69e-01h  1
 275 -2.5828739e-01 2.92e+01 9.72e-01  -7.5 1.28e+03    -  6.00e-01 1.00e+00h  1
 276 -2.5828936e-01 2.96e+01 6.16e-01  -7.5 2.35e+03    -  4.70e-01 3.06e-01h  2
 277 -2.5829405e-01 3.22e+01 2.11e-01  -7.5 1.38e+03    -  1.00e+00 1.00e+00h  1
 278 -2.5829383e-01 3.89e+01 2.45e+00  -7.5 1.66e+03 -13.0 1.96e-01 1.00e+00h  1
 279 -2.5829386e-01 1.16e+01 9.96e-01  -7.5 1.96e+02    -  7.35e-02 7.06e-01h  1
iter    objective    inf_pr   inf_du lg(mu)  ||d||  lg(rg) alpha_du alpha_pr  ls
 280 -2.5829389e-01 7.99e-01 1.49e-03  -7.5 1.33e+02    -  1.00e+00 1.00e+00h  1
 281r-2.5829389e-01 7.99e-01 9.99e+02  -0.1 0.00e+00    -  0.00e+00 3.38e-07R  8
 282r-2.5827478e-01 7.99e-01 9.99e+02  -0.1 2.21e+05    -  3.58e-07 7.28e-08f  1
 283 -2.5827511e-01 7.94e-01 9.21e+00  -7.5 4.18e+03    -  9.38e-04 5.98e-03h  4
 284 -2.5827525e-01 7.93e-01 9.23e+00  -7.5 2.90e+03    -  4.19e-02 2.19e-03h  7
 285 -2.5827527e-01 7.92e-01 9.24e+00  -7.5 2.61e+03    -  9.25e-03 4.76e-04h  8
 286 -2.5827529e-01 7.92e-01 9.60e+00  -7.5 2.55e+03    -  5.20e-01 4.03e-04h 10
 287 -2.5827566e-01 7.81e-01 9.48e+00  -7.5 4.83e+03    -  1.29e-02 1.29e-02s 16
 288 -2.5827576e-01 7.77e-01 9.44e+00  -7.5 4.84e+03    -  4.18e-03 4.18e-03s 16
 289 -2.5827656e-01 7.33e-01 9.07e+00  -7.5 1.03e+03    -  3.87e-02 3.87e-02s 16
iter    objective    inf_pr   inf_du lg(mu)  ||d||  lg(rg) alpha_du alpha_pr  ls
 290 -2.5827832e-01 5.97e-01 9.06e+00  -7.5 3.45e+02    -  8.87e-02 0.00e+00S 16
 291 -2.5828282e-01 3.66e-01 6.75e+00  -7.5 3.53e+02    -  5.58e-01 2.47e-01h  3
 292 -2.5829582e-01 2.81e-01 5.39e+01  -7.5 2.90e+02    -  4.64e-01 1.00e+00H  1
 293 -2.5829518e-01 3.37e-02 1.63e-02  -7.5 1.66e+02    -  1.00e+00 1.00e+00H  1
 294 -2.5829531e-01 5.96e-01 9.10e-01  -7.5 1.56e+03    -  1.00e+00 1.25e-01h  4
 295 -2.5829541e-01 7.88e-01 2.50e-01  -7.5 5.99e+02    -  1.00e+00 2.50e-01h  3
 296 -2.5829546e-01 7.85e-01 3.96e-01  -7.5 6.35e+02    -  1.00e+00 1.25e-01h  4
 297 -2.5829553e-01 7.93e-01 3.59e-01  -7.5 6.64e+02    -  1.00e+00 1.25e-01h  4
 298 -2.5829633e-01 9.91e-01 8.35e-02  -7.5 5.70e+02    -  1.00e+00 1.00e+00H  1
 299 -2.5829633e-01 8.74e-02 2.86e-04  -7.5 3.72e+01    -  1.00e+00 1.00e+00h  1
iter    objective    inf_pr   inf_du lg(mu)  ||d||  lg(rg) alpha_du alpha_pr  ls
 300 -2.5829634e-01 8.24e-03 1.15e-05  -7.5 1.12e+01    -  1.00e+00 1.00e+00h  1
 301 -2.5829634e-01 5.26e-05 8.39e-08  -7.5 1.00e+00    -  1.00e+00 1.00e+00h  1
 302 -2.5829634e-01 2.27e-09 3.36e-12  -7.5 6.66e-03    -  1.00e+00 1.00e+00h  1
 303 -2.5829942e-01 2.88e+01 3.73e-01  -9.0 7.24e+03    -  2.07e-01 1.87e-01h  1
 304 -2.5830202e-01 5.16e+01 4.97e-01  -9.0 4.60e+03    -  2.43e-01 2.95e-01h  1
 305 -2.5830413e-01 3.79e+01 2.74e+00  -9.0 1.57e+03    -  2.26e-01 4.47e-01h  1
 306 -2.5830434e-01 3.55e+01 2.27e+00  -9.0 2.27e+03    -  1.10e-01 8.15e-02h  1
 307 -2.5830570e-01 3.48e+01 2.00e+02  -9.0 1.65e+03    -  1.13e-02 6.49e-01h  1
 308 -2.5830607e-01 4.33e+01 1.47e+02  -9.0 1.49e+03    -  1.14e-03 9.57e-01h  1
 309 -2.5830576e-01 9.16e+00 3.08e+01  -9.0 1.87e+02    -  1.13e-01 7.89e-01h  1
iter    objective    inf_pr   inf_du lg(mu)  ||d||  lg(rg) alpha_du alpha_pr  ls
 310 -2.5830558e-01 1.35e+00 1.58e-01  -9.0 3.20e+02    -  9.76e-01 1.00e+00h  1
 311 -2.5830563e-01 4.08e-01 1.06e-01  -9.0 8.27e+02    -  3.62e-01 9.79e-01H  1
 312 -2.5830566e-01 2.85e+00 9.24e-02  -9.0 1.93e+03    -  1.30e-01 2.56e-01h  1
 313 -2.5830573e-01 2.98e+00 5.86e-02  -9.0 6.03e+02    -  3.64e-01 1.00e+00H  1
 314 -2.5830574e-01 2.96e-01 1.66e-04  -9.0 8.41e+01 -11.6 1.00e+00 1.00e+00h  1
 315 -2.5830575e-01 1.29e-01 1.12e-04  -9.0 8.73e+01 -12.1 1.00e+00 1.00e+00h  1
 316 -2.5830576e-01 2.81e+00 1.95e-03  -9.0 2.92e+02 -12.6 7.27e-01 1.00e+00h  1
 317 -2.5830582e-01 4.23e+00 8.49e-03  -9.0 1.37e+03 -13.1 9.67e-01 5.66e-01H  1
 318 -2.5830587e-01 1.94e+00 1.35e-03  -9.0 3.91e+02 -12.6 1.00e+00 1.00e+00h  1
 319 -2.5830602e-01 1.98e+01 1.62e-02  -9.0 2.66e+03 -13.1 8.33e-01 4.59e-01h  1
iter    objective    inf_pr   inf_du lg(mu)  ||d||  lg(rg) alpha_du alpha_pr  ls
 320 -2.5830627e-01 1.89e+01 4.77e-03  -9.0 1.37e+03 -12.7 1.00e+00 7.29e-01h  1
 321 -2.5830627e-01 1.89e+01 5.41e-03  -9.0 6.78e+04    -  7.85e-06 1.95e-04h  6
 322 -2.5830629e-01 1.02e+01 4.71e-02  -9.0 3.73e+02 -12.3 2.23e-01 4.62e-01h  1
 323 -2.5830630e-01 8.90e+00 5.19e-02  -9.0 6.05e+01 -10.9 5.58e-01 1.26e-01h  1
 324 -2.5830635e-01 1.09e-01 2.46e-03  -9.0 8.02e+01 -11.4 1.00e+00 1.00e+00h  1
 325 -2.5830643e-01 7.66e-01 1.31e-03  -9.0 2.36e+02 -11.9 1.00e+00 1.00e+00h  1
 326 -2.5830681e-01 1.49e+01 2.22e-03  -9.0 1.04e+03 -12.4 1.00e+00 1.00e+00h  1
 327 -2.5830713e-01 3.44e+00 3.55e-02  -9.0 4.74e+02 -11.9 1.39e-01 1.00e+00h  1
 328 -2.5830837e-01 7.07e+01 6.52e-02  -9.0 2.56e+03 -12.4 5.15e-02 8.57e-01h  1
 329 -2.5830823e-01 6.83e+01 1.55e+00  -9.0 4.45e+03    -  5.09e-01 4.02e-02h  3
iter    objective    inf_pr   inf_du lg(mu)  ||d||  lg(rg) alpha_du alpha_pr  ls
 330 -2.5830850e-01 5.84e+01 1.26e+00  -9.0 2.24e+03 -12.9 1.86e-01 1.63e-01h  1
 331 -2.5830913e-01 2.06e+01 4.09e+00  -9.0 1.31e+03 -12.5 6.63e-02 7.82e-01h  1
 332 -2.5830954e-01 1.43e+01 1.75e+00  -9.0 8.83e+02 -12.9 1.54e-01 7.70e-01h  1
 333 -2.5831009e-01 4.32e+01 1.56e+00  -9.0 3.68e+04 -13.4 3.26e-03 3.55e-02h  1
 334 -2.5831004e-01 4.34e+01 1.69e+00  -9.0 1.21e+04    -  1.77e-05 1.70e-02h  2
 335 -2.5831025e-01 2.73e+00 9.94e-01  -9.0 3.57e+02 -12.1 1.26e-01 1.00e+00h  1
 336 -2.5831045e-01 6.52e+00 6.10e-01  -9.0 1.24e+03    -  3.94e-01 3.82e-01h  1
 337 -2.5831040e-01 5.72e+00 1.88e-01  -9.0 2.94e+02 -11.7 6.60e-01 1.22e-01h  1
 338 -2.5831040e-01 5.65e+00 1.17e-01  -9.0 2.53e+02    -  8.87e-01 1.31e-02h  1
 339 -2.5831016e-01 2.17e+00 8.60e-02  -9.0 3.18e+02    -  1.00e+00 1.00e+00h  1
iter    objective    inf_pr   inf_du lg(mu)  ||d||  lg(rg) alpha_du alpha_pr  ls
 340 -2.5831016e-01 2.11e+00 8.31e-02  -9.0 1.29e+03    -  6.70e-01 3.34e-02h  1
 341 -2.5831016e-01 1.85e+00 7.24e-02  -9.0 8.22e+02    -  1.00e+00 1.25e-01h  4
 342 -2.5831023e-01 3.85e+00 1.70e-02  -9.0 4.20e+02    -  8.81e-01 1.00e+00h  1
 343 -2.5831025e-01 3.37e+00 1.49e-02  -9.0 1.14e+03    -  1.00e+00 1.26e-01h  1
 344 -2.5831033e-01 3.30e+00 8.30e-03  -9.0 1.16e+03    -  3.74e-01 4.46e-01H  1
 345 -2.5831030e-01 9.81e-01 1.01e-02  -9.0 2.14e+02    -  2.15e-03 1.00e+00h  1
 346 -2.5831030e-01 1.10e-03 4.07e-06  -9.0 6.94e+00    -  1.00e+00 1.00e+00h  1
 347 -2.5831033e-01 3.72e-01 2.28e-04  -9.0 1.79e+02 -12.1 1.00e+00 1.00e+00h  1
 348 -2.5831033e-01 3.17e-01 5.04e-03  -9.0 6.68e+01    -  1.00e+00 1.50e-01h  1
 349 -2.5831033e-01 1.04e-02 5.13e-05  -9.0 2.22e+01    -  1.00e+00 1.00e+00h  1
iter    objective    inf_pr   inf_du lg(mu)  ||d||  lg(rg) alpha_du alpha_pr  ls
 350 -2.5831033e-01 8.85e-06 2.19e-09  -9.0 6.57e-01    -  1.00e+00 1.00e+00h  1
 351 -2.5831033e-01 3.05e-10 1.50e-14  -9.0 9.10e-04    -  1.00e+00 1.00e+00h  1

Number of Iterations....: 351

                                   (scaled)                 (unscaled)
Objective...............:  -2.5831032587750241e-01   -2.5831032587750241e-01
Dual infeasibility......:   1.5029644195863057e-14    1.5029644195863057e-14
Constraint violation....:   3.0545288542439819e-10    3.0545288542439819e-10
Complementarity.........:   9.0909093034398504e-10    9.0909093034398504e-10
Overall NLP error.......:   9.0909093034398504e-10    9.0909093034398504e-10


Number of objective function evaluations             = 886
Number of objective gradient evaluations             = 352
Number of equality constraint evaluations            = 889
Number of inequality constraint evaluations          = 887
Number of equality constraint Jacobian evaluations   = 353
Number of inequality constraint Jacobian evaluations = 353
Number of Lagrangian Hessian evaluations             = 351
Total CPU secs in IPOPT (w/o function evaluations)   =    642.434
Total CPU secs in NLP function evaluations           =     14.582

EXIT: Optimal Solution Found.
